100 52333

 643 52
85 532
162 541
899 638
607 727
10 976
102 517
664 323
6 796
161 271
549 439
692 79
652 26
225 963
713 836
238 696
326 409
747 174
650 157
850 251
658 550
569 715
94 661
368 280
266 955
244 738
974 555
394 612
893 420
632 248
795 356
503 758
577 15
493 117
196 47
723 41
281 856
25 704
646 475
178 98
941 492
954 474
915 174
371 434
16 399
929 616
429 636
967 46
964 375
854 626
295 504
386 857
852 659
317 163
170 71
557 643
937 27
697 586
571 941
98 576
616 389
991 644
141 459
519 546
878 942
741 387
698 962
703 906
360 196
294 70
810 101
811 19
868 95
914 684
512 72
502 319
799 845
650 24
702 815
796 282
891 119
338 697
376 629
94 878
579 736
36 804
466 283
543 178
287 751
591 807
31 991
38 413
823 373
361 777
128 341
523 931
770 859
216 429
623 751
86 755
